p tw 30 49
e 0 5
e 0 25
e 0 29
e 1 17
e 1 22
e 2 7
e 2 9
e 2 18
e 3 9
e 3 15
e 4 20
e 4 22
e 4 23
e 5 6
e 5 22
e 6 8
e 6 24
e 6 29
e 7 13
e 7 14
e 7 18
e 7 21
e 7 27
e 8 12
e 8 13
e 8 15
e 10 11
e 10 12
e 10 18
e 11 15
e 12 19
e 12 21
e 12 25
e 13 14
e 13 16
e 13 17
e 13 18
e 13 20
e 16 20
e 16 22
e 16 26
e 18 20
e 19 20
e 21 27
e 21 29
e 22 25
e 24 27
e 25 28
e 27 28
